Route #1: 1 24 10 29 8 33 14 21 11 1
Route #2: 1 23 17 5 43 37 40 13 3 1
Route #3: 1 2 45 7 25 38 12 20 1
Route #4: 1 15 36 32 39 26 16 1
Route #5: 1 27 30 44 19 18 28 1
Route #6: 1 31 41 35 6 22 9 42 34 1
cost 1066
